NAME : LPS-n19-m105
COMMENT : (Lartu-Peter-Santi Plot, instance 6505 out of 39200. 19 customers.)
TYPE : CVRP
DIMENSION : 19
EDGE_WEIGHT_TYPE : EUC_2D
CAPACITY : 112
NODE_COORD_SECTION
 1 24 83
 2 75 54
 3 33 28
 4 32 13
 5 44 18
 6 35 65
 7 81 43
 8 46 62
 9 57 69
 10 34 61
 11 34 28
 12 46 11
 13 1 3
 14 75 96
 15 68 19
 16 65 52
 17 20 41
 18 18 93
 19 11 62
DEMAND_SECTION
1 0
2 44
3 95
4 54
5 106
6 68
7 83
8 70
9 97
10 71
11 5
12 95
13 68
14 75
15 26
16 5
17 88
18 20
19 97
DEPOT_SECTION
 1
 -1
EOF
